c A SAT instance generated from a 3-CNF formula that had 30 clauses and 12 variables
p cnf 12 30
11 -6 -12 0
7 9 -2 0
-8 -6 2 0
8 -1 -6 0
2 3 11 0
9 -12 -3 0
-1 -4 9 0
-11 -1 2 0
7 11 8 0
4 2 11 0
3 -5 -6 0
-2 -8 -10 0
12 3 -7 0
2 6 -5 0
-1 5 12 0
7 -2 -1 0
-10 -4 -8 0
-3 10 -4 0
-12 -2 -7 0
12 9 -3 0
10 2 8 0
12 1 -10 0
7 -8 -2 0
5 4 -2 0
-1 -4 10 0
-12 11 -3 0
5 -2 -1 0
10 -6 4 0
-10 1 -12 0
12 4 11 0
